NAME: random-26-8060
TYPE: TSP
COMMENT: size=26 seed=8060
DIMENSION: 54
EDGE_WEIGHT_TYPE: EUC_2D
NODE_COORD_SECTION
+0 420 120
-0 420 120
+1 582 12
-1 427 943
+2 55 689
-2 523 558
+3 561 654
-3 10 137
+4 997 626
-4 170 634
+5 672 995
-5 231 567
+6 60 171
-6 513 990
+7 216 903
-7 781 39
+8 315 866
-8 596 665
+9 687 828
-9 151 492
+10 843 727
-10 452 576
+11 703 205
-11 450 350
+12 534 921
-12 541 230
+13 828 535
-13 15 126
+14 553 715
-14 584 444
+15 43 258
-15 773 3
+16 116 473
-16 805 523
+17 894 662
-17 235 748
+18 349 625
-18 857 119
+19 932 419
-19 861 211
+20 116 170
-20 571 504
+21 314 822
-21 649 878
+22 475 713
-22 567 584
+23 937 928
-23 812 714
+24 273 266
-24 290 484
+25 550 983
-25 102 941
+26 234 751
-26 471 718
PRECEDENCE_SECTION
+0 -0
+1 -1
+2 -2
+3 -3
+4 -4
+5 -5
+6 -6
+7 -7
+8 -8
+9 -9
+10 -10
+11 -11
+12 -12
+13 -13
+14 -14
+15 -15
+16 -16
+17 -17
+18 -18
+19 -19
+20 -20
+21 -21
+22 -22
+23 -23
+24 -24
+25 -25
+26 -26
EOF
